nApps = 209
nRes = 9
nActs = 434
nNetworks = 6

assignmentToResources = [1,1,3,2,1,1,1,3,3,3,3,1,3,3,2,1,1,3,1,1,1,2,1,3,1,1,1,2,1,1,1,1,2,1,3,2,1,3,2,3,3,3,3,3,3,1,3,3,1,1,2,1,3,1,3,2,3,2,3,3,1,2,2,2,3,1,1,2,2,1,3,2,2,2,1,3,1,3,2,3,3,2,2,3,3,2,3,3,2,3,2,2,3,2,1,2,3,2,2,3,4,4,6,5,5,4,4,4,4,4,6,6,6,6,6,6,6,6,6,6,6,4,6,6,6,4,4,4,4,6,6,4,4,5,4,4,4,4,4,4,4,5,5,5,4,4,4,4,4,4,4,4,5,5,5,4,4,4,6,6,6,6,5,5,5,4,6,5,5,5,6,6,6,6,6,6,6,6,6,6,6,6,6,6,6,6,4,4,5,5,5,4,4,6,6,6,5,6,6,6,5,6,6,6,6,6,4,5,5,5,4,6,5,5,6,6,5,5,5,5,6,6,6,5,5,5,6,5,5,5,5,5,6,5,6,5,5,5,5,6,5,7,5,7,6,8,4,8,6,8,4,8,4,9,4,8,4,9,6,8,5,7,6,7,5,9,5,7,5,9,6,7,4,8,4,9,6,7,5,9,6,8,4,9,4,9,6,8,4,9,5,9,6,7,8,9,8,9,9,9,9,9,8,9,8,7,7,7,7,7,7,7,7,8,7,9,8,7,8,9,9,9,8,7,7,8,9,9,9,8,8,9,8,8,9,7,9,9,8,9,9,8,8,9,8,8,9,9,7,8,9,8,8,7,7,7,9,7,9,9,8,9,7,9,7,8,8,8,7,8,8,8,7,8,7,7,8,8,8,8,8,9,9,9,7,8,8,7,8,8,9,7,7,8,9,7,7,7,7,7,8,7,7,7,9,8,9,9,8,8,9,7,7,9,8,8,8,7,7,9,8,7,9,7,7,9,8,9,8,7,9,9,9,8];

processingTimes = [56,72,120,120,136,136,128,80,88,120,64,112,40,136,64,48,128,120,136,136,96,120,120,72,168,104,48,136,96,96,136,136,48,136,64,136,104,144,120,136,80,64,128,48,120,128,48,104,144,104,96,104,128,128,104,120,128,64,136,128,104,144,64,96,56,136,128,112,64,144,96,136,96,104,56,128,64,128,120,104,168,80,152,136,64,128,120,160,136,152,88,128,168,80,152,120,112,72,112,104,500,3,13,100,3,4,3,3,4,4,3,3,3,500,4,4,500,4,500,500,4,23,4,4,4,3,4,3,4,8,4,500,3,4,3,3,4,500,3,4,13,4,4,4,13,8,3,500,3,3,3,3,3,500,500,500,4,4,500,3,3,4,4,4,100,100,3,3,500,4,8,4,500,3,4,3,3,4,500,17,200,3,3,500,3,3,4,4,4,3,3,5,8,3,500,500,5,3,500,3,4,4,500,500,100,4,3,4,3,4,4,4,4,4,500,3,500,13,4,4,6,4,4,3,3,3,4,4,3,3,3,4,5,3,4,3,3,3,3,8,5,5,3,3,8,8,3,3,3,3,5,5,8,8,4,4,500,500,500,500,500,500,500,500,500,500,4,4,3,3,8,8,4,4,8,8,3,3,4,4,3,3,5,5,3,3,4,4,3,3,500,500,500,500,500,3,13,100,3,4,3,3,4,4,3,3,3,500,4,4,500,4,500,500,4,23,4,4,4,3,4,3,4,8,4,500,3,4,3,3,4,500,3,4,13,4,4,4,13,8,3,500,3,3,3,3,3,500,500,500,4,4,500,3,3,4,4,4,100,100,3,3,500,4,8,4,500,3,4,3,3,4,500,17,200,3,3,500,3,3,4,4,4,3,3,5,8,3,500,500,5,3,500,3,4,4,500,500,100,4,3,4,3,4,4,4,4,4,500,3,500,13,4,4,6,4,4,3,3,3,4,4,3,3,3,4,5,3,4,3,3,3,3,8];

periods = [100000,20000,20000,1000,50000,20000,20000,50000,10000,10000,10000,10000,20000,10000,20000,10000,20000,1000,10000,20000,100000,20000,20000,20000,10000,10000,10000,10000,10000,20000,10000,10000,100000,100000,100000,1000,1000,10000,10000,50000,10000,10000,20000,10000,20000,100000,2000,20000,20000,100000,10000,100000,10000,1000,10000,100000,100000,10000,50000,1000,100000,2000,20000,20000,20000,10000,20000,10000,1000,1000,2000,10000,100000,10000,10000,100000,20000,10000,10000,5000,10000,20000,20000,20000,10000,10000,20000,20000,10000,10000,10000,20000,10000,10000,10000,100000,100000,10000,100000,20000,100000,20000,20000,1000,1000,50000,50000,50000,20000,20000,50000,50000,50000,10000,10000,10000,10000,10000,10000,10000,10000,10000,20000,10000,10000,10000,10000,10000,20000,1000,1000,10000,100000,20000,20000,20000,10000,10000,10000,10000,10000,10000,10000,10000,10000,20000,20000,20000,10000,10000,10000,10000,100000,100000,100000,100000,100000,100000,100000,100000,100000,100000,1000,1000,1000,1000,10000,10000,10000,10000,50000,10000,10000,10000,10000,10000,10000,20000,20000,2000,2000,20000,20000,20000,20000,20000,20000,100000,10000,10000,10000,100000,100000,10000,10000,10000,100000,100000,100000,100000,10000,50000,50000,50000,1000,1000,100000,20000,10000,1000,1000,2000,10000,10000,10000,5000,20000,20000,20000,20000,10000,10000,10000,10000,10000,10000,20000,10000,10000,10000,10000,10000,10000,100000,100000,10000,10000,10000,100000,20000,100000,100000,100000,100000,100000,100000,100000,100000,100000,100000,100000,100000,100000,100000,100000,100000,20000,20000,20000,20000,20000,20000,20000,20000,20000,20000,20000,20000,10000,10000,10000,10000,10000,10000,10000,10000,10000,10000,10000,10000,20000,20000,20000,20000,20000,20000,10000,10000,10000,10000,10000,10000,10000,10000,100000,20000,20000,1000,1000,50000,50000,50000,20000,20000,50000,50000,50000,10000,10000,10000,10000,10000,10000,10000,10000,10000,20000,10000,10000,10000,10000,10000,20000,1000,1000,10000,100000,20000,20000,20000,10000,10000,10000,10000,10000,10000,10000,10000,10000,20000,20000,20000,10000,10000,10000,10000,100000,100000,100000,100000,100000,100000,100000,100000,100000,100000,1000,1000,1000,1000,10000,10000,10000,10000,50000,10000,10000,10000,10000,10000,10000,20000,20000,2000,2000,20000,20000,20000,20000,20000,20000,100000,10000,10000,10000,100000,100000,10000,10000,10000,100000,100000,100000,100000,10000,50000,50000,50000,1000,1000,100000,20000,10000,1000,1000,2000,10000,10000,10000,5000,20000,20000,20000,20000,10000,10000,10000,10000,10000,10000,20000,10000,10000,10000,10000,10000,10000,100000,100000,10000,10000,10000,100000,20000];

assignmentToClusters = [1,2,2,3,4,5,6,7,8,9,10,11,12,13,5,14,15,16,17,18,19,20,21,22,23,24,25,9,10,26,27,28,1,1,1,29,30,31,32,33,34,35,36,37,38,19,39,40,22,19,9,1,10,41,42,1,43,10,44,45,19,46,2,47,20,9,2,48,49,50,51,52,1,53,52,1,20,52,54,55,32,56,57,2,58,59,60,61,62,63,64,2,65,66,32,1,1,67,68,69,70,71,72,73,74,75,76,77,78,79,80,81,82,83,84,85,86,87,88,89,90,91,92,93,94,95,96,97,98,99,100,101,102,103,104,105,106,107,108,109,110,111,112,113,114,115,116,117,118,119,120,121,122,123,124,125,126,127,128,129,130,131,132,133,134,135,136,137,138,139,140,141,142,143,144,145,146,147,148,149,150,151,152,153,154,155,156,157,158,159,160,161,162,163,164,165,166,167,168,169,170,171,172,173,174,175,176,177,178,179,180,181,182,183,184,185,186,187,188,189,190,191,192,193,194,195,196,197,198,199,200,201,202,203,204,205,206,207,208,209,1,1,1,1,1,1,1,1,1,1,1,1,1,1,1,1,2,2,2,2,2,2,2,2,2,2,5,5,9,9,9,9,9,9,10,10,10,10,10,10,20,20,20,20,22,22,32,32,32,32,52,52,52,52,70,71,72,73,74,75,76,77,78,79,80,81,82,83,84,85,86,87,88,89,90,91,92,93,94,95,96,97,98,99,100,101,102,103,104,105,106,107,108,109,110,111,112,113,114,115,116,117,118,119,120,121,122,123,124,125,126,127,128,129,130,131,132,133,134,135,136,137,138,139,140,141,142,143,144,145,146,147,148,149,150,151,152,153,154,155,156,157,158,159,160,161,162,163,164,165,166,167,168,169,170,171,172,173,174,175,176,177,178,179,180,181,182,183,184,185,186,187,188,189,190,191,192,193,194,195,196,197,198,199,200,201,202,203,204,205,206,207,208,209];

precedenceAdjList = [[241,243],[],[265],[],[],[267],[],[],[],[269],[275],[],[],[],[],[],[],[],[],[],[49],[281],[],[285],[],[],[],[273],[277],[],[],[],[55,249],[],[],[],[],[],[287],[],[],[],[],[],[],[60],[],[],[],[45],[],[],[279],[],[],[245,247],[],[],[],[],[],[],[],[],[283],[271],[261,263],[],[],[],[],[],[251],[],[293],[],[],[291],[],[],[289],[],[],[257],[],[],[],[],[],[],[],[259],[],[],[],[255],[253],[],[],[],[],[],[],[],[],[],[],[],[],[],[],[],[],[],[],[],[],[],[],[],[],[],[],[],[],[],[],[],[],[],[],[],[],[],[],[],[],[],[],[],[],[],[],[],[],[],[],[],[],[],[],[],[],[],[],[],[],[],[],[],[],[],[],[],[],[],[],[],[],[],[],[],[],[],[],[],[],[],[],[],[],[],[],[],[],[],[],[],[],[],[],[],[],[],[],[],[],[],[],[],[],[],[],[],[],[],[],[],[],[],[],[],[],[],[],[],[],[],[],[],[],[],[],[],[],[],[],[],[],[],[],[],[],[],[],[],[],[],[],[],[55],[240],[72],[242],[75],[244],[33],[246],[34],[248],[51],[250],[0],[252],[0],[254],[1],[256],[83],[258],[91],[260],[2],[262],[62],[264],[14],[266],[50],[268],[9],[270],[65],[272],[28],[274],[52],[276],[57],[278],[64],[280],[76],[282],[48],[284],[80],[286],[94],[288],[71],[290],[77],[292],[100],[101],[102],[103],[104],[105],[106],[107],[108],[109],[110],[111],[112],[113],[114],[115],[116],[117],[118],[119],[120],[121],[122],[123],[124],[125],[126],[127],[128],[129],[130],[131],[132],[133],[134],[135],[136],[137],[138],[139],[140],[141],[142],[143],[144],[145],[146],[147],[148],[149],[150],[151],[152],[153],[154],[155],[156],[157],[158],[159],[160],[161],[162],[163],[164],[165],[166],[167],[168],[169],[170],[171],[172],[173],[174],[175],[176],[177],[178],[179],[180],[181],[182],[183],[184],[185],[186],[187],[188],[189],[190],[191],[192],[193],[194],[195],[196],[197],[198],[199],[200],[201],[202],[203],[204],[205],[206],[207],[208],[209],[210],[211],[212],[213],[214],[215],[216],[217],[218],[219],[220],[221],[222],[223],[224],[225],[226],[227],[228],[229],[230],[231],[232],[233],[234],[235],[236],[237],[238],[239]];